100 4950
1 2 1
1 3 1
1 4 5
1 5 3
1 6 4
1 7 4
1 8 3
1 9 4
1 10 4
1 11 4
1 12 1
1 13 1
1 14 2
1 15 4
1 16 4
1 17 3
1 18 1
1 19 1
1 20 5
1 21 5
1 22 1
1 23 1
1 24 2
1 25 4
1 26 2
1 27 4
1 28 4
1 29 3
1 30 1
1 31 2
1 32 2
1 33 3
1 34 5
1 35 1
1 36 3
1 37 1
1 38 2
1 39 3
1 40 5
1 41 2
1 42 2
1 43 2
1 44 4
1 45 2
1 46 5
1 47 2
1 48 1
1 49 1
1 50 2
1 51 2
1 52 1
1 53 4
1 54 1
1 55 3
1 56 2
1 57 4
1 58 4
1 59 5
1 60 5
1 61 1
1 62 1
1 63 4
1 64 3
1 65 3
1 66 1
1 67 1
1 68 5
1 69 4
1 70 5
1 71 4
1 72 1
1 73 5
1 74 5
1 75 4
1 76 2
1 77 5
1 78 1
1 79 1
1 80 2
1 81 1
1 82 4
1 83 5
1 84 2
1 85 3
1 86 1
1 87 4
1 88 2
1 89 1
1 90 2
1 91 1
1 92 1
1 93 2
1 94 3
1 95 1
1 96 3
1 97 3
1 98 5
1 99 2
1 100 3
2 3 3
2 4 5
2 5 3
2 6 1
2 7 5
2 8 2
2 9 2
2 10 3
2 11 5
2 12 2
2 13 5
2 14 4
2 15 3
2 16 5
2 17 5
2 18 5
2 19 5
2 20 4
2 21 3
2 22 1
2 23 3
2 24 1
2 25 3
2 26 2
2 27 5
2 28 4
2 29 5
2 30 5
2 31 5
2 32 1
2 33 2
2 34 1
2 35 4
2 36 3
2 37 1
2 38 5
2 39 5
2 40 4
2 41 2
2 42 1
2 43 3
2 44 2
2 45 2
2 46 1
2 47 2
2 48 1
2 49 1
2 50 4
2 51 1
2 52 2
2 53 2
2 54 4
2 55 5
2 56 2
2 57 5
2 58 3
2 59 3
2 60 2
2 61 1
2 62 2
2 63 2
2 64 1
2 65 5
2 66 2
2 67 5
2 68 3
2 69 4
2 70 3
2 71 5
2 72 2
2 73 5
2 74 3
2 75 2
2 76 4
2 77 1
2 78 2
2 79 4
2 80 3
2 81 5
2 82 1
2 83 4
2 84 2
2 85 1
2 86 4
2 87 1
2 88 1
2 89 4
2 90 4
2 91 3
2 92 1
2 93 5
2 94 3
2 95 5
2 96 5
2 97 2
2 98 2
2 99 5
2 100 4
3 4 4
3 5 2
3 6 1
3 7 3
3 8 3
3 9 2
3 10 5
3 11 4
3 12 4
3 13 4
3 14 4
3 15 2
3 16 3
3 17 1
3 18 2
3 19 3
3 20 4
3 21 3
3 22 2
3 23 3
3 24 3
3 25 5
3 26 4
3 27 2
3 28 4
3 29 1
3 30 1
3 31 5
3 32 2
3 33 2
3 34 1
3 35 4
3 36 5
3 37 5
3 38 1
3 39 5
3 40 3
3 41 3
3 42 3
3 43 1
3 44 3
3 45 5
3 46 4
3 47 3
3 48 2
3 49 4
3 50 4
3 51 5
3 52 3
3 53 1
3 54 2
3 55 5
3 56 5
3 57 1
3 58 1
3 59 1
3 60 1
3 61 4
3 62 2
3 63 2
3 64 3
3 65 1
3 66 5
3 67 3
3 68 3
3 69 4
3 70 3
3 71 1
3 72 5
3 73 2
3 74 2
3 75 3
3 76 3
3 77 5
3 78 5
3 79 4
3 80 1
3 81 4
3 82 3
3 83 1
3 84 2
3 85 2
3 86 5
3 87 2
3 88 3
3 89 3
3 90 1
3 91 2
3 92 3
3 93 3
3 94 4
3 95 4
3 96 5
3 97 5
3 98 4
3 99 2
3 100 4
4 5 2
4 6 1
4 7 3
4 8 1
4 9 5
4 10 4
4 11 5
4 12 4
4 13 3
4 14 5
4 15 5
4 16 5
4 17 3
4 18 4
4 19 2
4 20 5
4 21 4
4 22 1
4 23 3
4 24 4
4 25 1
4 26 3
4 27 3
4 28 4
4 29 2
4 30 2
4 31 3
4 32 1
4 33 4
4 34 2
4 35 4
4 36 1
4 37 2
4 38 5
4 39 4
4 40 5
4 41 1
4 42 3
4 43 4
4 44 3
4 45 4
4 46 4
4 47 1
4 48 3
4 49 3
4 50 3
4 51 2
4 52 4
4 53 5
4 54 2
4 55 5
4 56 3
4 57 1
4 58 4
4 59 3
4 60 5
4 61 1
4 62 1
4 63 2
4 64 4
4 65 3
4 66 2
4 67 2
4 68 1
4 69 3
4 70 5
4 71 3
4 72 2
4 73 4
4 74 2
4 75 5
4 76 3
4 77 4
4 78 2
4 79 2
4 80 4
4 81 1
4 82 1
4 83 3
4 84 1
4 85 1
4 86 5
4 87 5
4 88 4
4 89 5
4 90 3
4 91 5
4 92 3
4 93 5
4 94 2
4 95 2
4 96 5
4 97 5
4 98 2
4 99 3
4 100 4
5 6 1
5 7 1
5 8 4
5 9 5
5 10 4
5 11 2
5 12 4
5 13 5
5 14 5
5 15 2
5 16 3
5 17 4
5 18 4
5 19 4
5 20 3
5 21 2
5 22 1
5 23 5
5 24 4
5 25 5
5 26 3
5 27 2
5 28 4
5 29 1
5 30 2
5 31 2
5 32 2
5 33 2
5 34 1
5 35 3
5 36 4
5 37 4
5 38 3
5 39 1
5 40 5
5 41 5
5 42 3
5 43 2
5 44 4
5 45 2
5 46 1
5 47 4
5 48 2
5 49 2
5 50 1
5 51 5
5 52 4
5 53 2
5 54 5
5 55 5
5 56 4
5 57 5
5 58 2
5 59 4
5 60 5
5 61 3
5 62 1
5 63 4
5 64 1
5 65 4
5 66 5
5 67 2
5 68 1
5 69 1
5 70 3
5 71 4
5 72 5
5 73 3
5 74 1
5 75 1
5 76 5
5 77 4
5 78 2
5 79 2
5 80 3
5 81 1
5 82 4
5 83 2
5 84 4
5 85 4
5 86 5
5 87 5
5 88 1
5 89 4
5 90 4
5 91 3
5 92 3
5 93 1
5 94 2
5 95 5
5 96 2
5 97 4
5 98 2
5 99 4
5 100 1
6 7 5
6 8 2
6 9 4
6 10 5
6 11 5
6 12 3
6 13 2
6 14 4
6 15 3
6 16 5
6 17 1
6 18 1
6 19 1
6 20 3
6 21 5
6 22 5
6 23 5
6 24 5
6 25 2
6 26 4
6 27 1
6 28 2
6 29 3
6 30 1
6 31 4
6 32 4
6 33 2
6 34 1
6 35 5
6 36 5
6 37 5
6 38 4
6 39 3
6 40 3
6 41 2
6 42 5
6 43 4
6 44 4
6 45 2
6 46 2
6 47 4
6 48 5
6 49 5
6 50 5
6 51 3
6 52 2
6 53 3
6 54 4
6 55 1
6 56 3
6 57 5
6 58 1
6 59 4
6 60 3
6 61 3
6 62 5
6 63 2
6 64 5
6 65 5
6 66 5
6 67 4
6 68 2
6 69 2
6 70 2
6 71 1
6 72 2
6 73 1
6 74 1
6 75 5
6 76 2
6 77 4
6 78 2
6 79 1
6 80 4
6 81 2
6 82 4
6 83 3
6 84 5
6 85 4
6 86 3
6 87 1
6 88 3
6 89 2
6 90 1
6 91 1
6 92 1
6 93 4
6 94 2
6 95 5
6 96 5
6 97 1
6 98 1
6 99 5
6 100 4
7 8 5
7 9 2
7 10 2
7 11 3
7 12 3
7 13 5
7 14 1
7 15 2
7 16 4
7 17 3
7 18 1
7 19 1
7 20 3
7 21 3
7 22 5
7 23 5
7 24 4
7 25 1
7 26 2
7 27 2
7 28 2
7 29 1
7 30 2
7 31 4
7 32 1
7 33 3
7 34 5
7 35 1
7 36 2
7 37 5
7 38 2
7 39 5
7 40 4
7 41 1
7 42 5
7 43 5
7 44 5
7 45 1
7 46 2
7 47 3
7 48 4
7 49 4
7 50 4
7 51 2
7 52 5
7 53 2
7 54 3
7 55 2
7 56 5
7 57 2
7 58 5
7 59 2
7 60 3
7 61 4
7 62 3
7 63 1
7 64 5
7 65 3
7 66 1
7 67 2
7 68 2
7 69 5
7 70 3
7 71 1
7 72 3
7 73 3
7 74 1
7 75 2
7 76 3
7 77 4
7 78 3
7 79 1
7 80 1
7 81 3
7 82 3
7 83 5
7 84 3
7 85 4
7 86 4
7 87 4
7 88 3
7 89 3
7 90 5
7 91 4
7 92 5
7 93 2
7 94 5
7 95 4
7 96 5
7 97 1
7 98 2
7 99 3
7 100 2
8 9 5
8 10 2
8 11 3
8 12 2
8 13 2
8 14 5
8 15 3
8 16 1
8 17 2
8 18 1
8 19 2
8 20 5
8 21 2
8 22 4
8 23 5
8 24 1
8 25 1
8 26 3
8 27 1
8 28 1
8 29 1
8 30 2
8 31 3
8 32 3
8 33 4
8 34 4
8 35 4
8 36 1
8 37 4
8 38 4
8 39 2
8 40 4
8 41 1
8 42 2
8 43 2
8 44 4
8 45 1
8 46 4
8 47 2
8 48 4
8 49 2
8 50 4
8 51 1
8 52 1
8 53 1
8 54 5
8 55 1
8 56 4
8 57 2
8 58 1
8 59 4
8 60 5
8 61 2
8 62 1
8 63 4
8 64 3
8 65 2
8 66 4
8 67 1
8 68 4
8 69 5
8 70 4
8 71 5
8 72 4
8 73 2
8 74 3
8 75 1
8 76 3
8 77 1
8 78 2
8 79 4
8 80 3
8 81 5
8 82 2
8 83 3
8 84 1
8 85 3
8 86 1
8 87 1
8 88 1
8 89 2
8 90 5
8 91 1
8 92 5
8 93 5
8 94 1
8 95 4
8 96 5
8 97 2
8 98 3
8 99 3
8 100 1
9 10 5
9 11 2
9 12 1
9 13 4
9 14 4
9 15 5
9 16 1
9 17 1
9 18 5
9 19 4
9 20 3
9 21 1
9 22 2
9 23 3
9 24 2
9 25 2
9 26 5
9 27 5
9 28 2
9 29 1
9 30 2
9 31 3
9 32 1
9 33 2
9 34 2
9 35 4
9 36 2
9 37 2
9 38 5
9 39 5
9 40 2
9 41 4
9 42 2
9 43 4
9 44 4
9 45 1
9 46 5
9 47 2
9 48 1
9 49 5
9 50 3
9 51 3
9 52 5
9 53 3
9 54 2
9 55 2
9 56 4
9 57 5
9 58 5
9 59 4
9 60 4
9 61 3
9 62 4
9 63 1
9 64 5
9 65 4
9 66 4
9 67 1
9 68 3
9 69 3
9 70 3
9 71 4
9 72 2
9 73 3
9 74 5
9 75 4
9 76 4
9 77 1
9 78 1
9 79 5
9 80 2
9 81 2
9 82 4
9 83 3
9 84 4
9 85 1
9 86 3
9 87 5
9 88 5
9 89 4
9 90 4
9 91 1
9 92 4
9 93 3
9 94 5
9 95 2
9 96 3
9 97 3
9 98 3
9 99 2
9 100 5
10 11 3
10 12 3
10 13 3
10 14 4
10 15 3
10 16 2
10 17 3
10 18 2
10 19 3
10 20 2
10 21 1
10 22 1
10 23 3
10 24 2
10 25 1
10 26 3
10 27 3
10 28 1
10 29 4
10 30 5
10 31 3
10 32 5
10 33 1
10 34 3
10 35 1
10 36 4
10 37 1
10 38 4
10 39 3
10 40 2
10 41 5
10 42 4
10 43 5
10 44 3
10 45 1
10 46 3
10 47 1
10 48 3
10 49 4
10 50 1
10 51 4
10 52 5
10 53 2
10 54 1
10 55 2
10 56 2
10 57 5
10 58 5
10 59 3
10 60 3
10 61 5
10 62 5
10 63 4
10 64 5
10 65 5
10 66 2
10 67 3
10 68 5
10 69 3
10 70 2
10 71 2
10 72 1
10 73 5
10 74 5
10 75 2
10 76 5
10 77 2
10 78 5
10 79 5
10 80 4
10 81 4
10 82 4
10 83 4
10 84 3
10 85 3
10 86 4
10 87 3
10 88 3
10 89 4
10 90 5
10 91 5
10 92 1
10 93 5
10 94 5
10 95 1
10 96 1
10 97 1
10 98 2
10 99 1
10 100 3
11 12 2
11 13 1
11 14 1
11 15 3
11 16 4
11 17 3
11 18 5
11 19 1
11 20 3
11 21 4
11 22 5
11 23 4
11 24 2
11 25 5
11 26 2
11 27 5
11 28 2
11 29 2
11 30 3
11 31 2
11 32 3
11 33 5
11 34 3
11 35 4
11 36 4
11 37 4
11 38 4
11 39 4
11 40 5
11 41 3
11 42 2
11 43 3
11 44 3
11 45 4
11 46 4
11 47 1
11 48 2
11 49 4
11 50 4
11 51 3
11 52 1
11 53 3
11 54 2
11 55 3
11 56 4
11 57 3
11 58 5
11 59 1
11 60 3
11 61 2
11 62 4
11 63 2
11 64 2
11 65 4
11 66 4
11 67 5
11 68 1
11 69 5
11 70 5
11 71 5
11 72 2
11 73 3
11 74 1
11 75 1
11 76 5
11 77 1
11 78 5
11 79 2
11 80 1
11 81 5
11 82 2
11 83 1
11 84 4
11 85 1
11 86 4
11 87 4
11 88 3
11 89 5
11 90 4
11 91 3
11 92 4
11 93 4
11 94 4
11 95 2
11 96 5
11 97 4
11 98 1
11 99 4
11 100 3
12 13 4
12 14 3
12 15 1
12 16 5
12 17 3
12 18 4
12 19 2
12 20 4
12 21 2
12 22 5
12 23 2
12 24 2
12 25 1
12 26 1
12 27 4
12 28 3
12 29 3
12 30 4
12 31 3
12 32 3
12 33 4
12 34 5
12 35 5
12 36 4
12 37 1
12 38 2
12 39 2
12 40 4
12 41 3
12 42 3
12 43 2
12 44 5
12 45 2
12 46 2
12 47 1
12 48 1
12 49 4
12 50 2
12 51 2
12 52 1
12 53 1
12 54 4
12 55 3
12 56 2
12 57 1
12 58 1
12 59 3
12 60 4
12 61 5
12 62 2
12 63 4
12 64 1
12 65 3
12 66 2
12 67 3
12 68 4
12 69 4
12 70 2
12 71 4
12 72 2
12 73 3
12 74 2
12 75 1
12 76 3
12 77 3
12 78 3
12 79 3
12 80 3
12 81 1
12 82 1
12 83 3
12 84 1
12 85 4
12 86 4
12 87 2
12 88 3
12 89 2
12 90 4
12 91 2
12 92 4
12 93 4
12 94 1
12 95 5
12 96 3
12 97 5
12 98 2
12 99 2
12 100 5
13 14 5
13 15 4
13 16 3
13 17 1
13 18 2
13 19 2
13 20 2
13 21 4
13 22 2
13 23 1
13 24 5
13 25 1
13 26 3
13 27 3
13 28 2
13 29 1
13 30 4
13 31 2
13 32 5
13 33 4
13 34 1
13 35 3
13 36 3
13 37 1
13 38 2
13 39 3
13 40 3
13 41 2
13 42 2
13 43 3
13 44 1
13 45 1
13 46 3
13 47 5
13 48 3
13 49 4
13 50 2
13 51 1
13 52 3
13 53 4
13 54 3
13 55 4
13 56 1
13 57 1
13 58 4
13 59 5
13 60 3
13 61 3
13 62 1
13 63 5
13 64 5
13 65 2
13 66 1
13 67 3
13 68 3
13 69 5
13 70 4
13 71 5
13 72 1
13 73 5
13 74 4
13 75 1
13 76 2
13 77 2
13 78 4
13 79 4
13 80 2
13 81 3
13 82 2
13 83 3
13 84 1
13 85 4
13 86 1
13 87 2
13 88 5
13 89 2
13 90 4
13 91 3
13 92 2
13 93 5
13 94 4
13 95 1
13 96 2
13 97 2
13 98 3
13 99 5
13 100 3
14 15 3
14 16 5
14 17 5
14 18 4
14 19 5
14 20 2
14 21 3
14 22 2
14 23 2
14 24 5
14 25 3
14 26 1
14 27 3
14 28 3
14 29 3
14 30 2
14 31 5
14 32 3
14 33 1
14 34 4
14 35 4
14 36 3
14 37 4
14 38 1
14 39 5
14 40 5
14 41 1
14 42 4
14 43 5
14 44 1
14 45 3
14 46 4
14 47 1
14 48 5
14 49 1
14 50 2
14 51 2
14 52 4
14 53 5
14 54 2
14 55 5
14 56 5
14 57 3
14 58 1
14 59 5
14 60 1
14 61 3
14 62 3
14 63 4
14 64 5
14 65 3
14 66 5
14 67 5
14 68 1
14 69 5
14 70 3
14 71 5
14 72 3
14 73 2
14 74 4
14 75 2
14 76 4
14 77 2
14 78 2
14 79 1
14 80 2
14 81 2
14 82 1
14 83 3
14 84 1
14 85 4
14 86 4
14 87 1
14 88 5
14 89 3
14 90 1
14 91 4
14 92 5
14 93 4
14 94 1
14 95 1
14 96 2
14 97 1
14 98 5
14 99 5
14 100 3
15 16 4
15 17 1
15 18 1
15 19 2
15 20 1
15 21 5
15 22 1
15 23 2
15 24 3
15 25 3
15 26 5
15 27 1
15 28 1
15 29 1
15 30 2
15 31 3
15 32 1
15 33 2
15 34 4
15 35 2
15 36 1
15 37 4
15 38 5
15 39 2
15 40 1
15 41 1
15 42 4
15 43 4
15 44 3
15 45 5
15 46 2
15 47 1
15 48 1
15 49 5
15 50 1
15 51 2
15 52 3
15 53 5
15 54 4
15 55 1
15 56 2
15 57 2
15 58 3
15 59 2
15 60 3
15 61 4
15 62 2
15 63 3
15 64 3
15 65 5
15 66 5
15 67 5
15 68 2
15 69 5
15 70 3
15 71 3
15 72 5
15 73 1
15 74 1
15 75 3
15 76 1
15 77 4
15 78 3
15 79 3
15 80 3
15 81 2
15 82 4
15 83 1
15 84 2
15 85 4
15 86 1
15 87 1
15 88 1
15 89 5
15 90 1
15 91 1
15 92 2
15 93 2
15 94 2
15 95 1
15 96 4
15 97 4
15 98 5
15 99 5
15 100 3
16 17 3
16 18 2
16 19 5
16 20 2
16 21 5
16 22 2
16 23 2
16 24 3
16 25 3
16 26 2
16 27 2
16 28 4
16 29 5
16 30 5
16 31 3
16 32 2
16 33 1
16 34 5
16 35 1
16 36 4
16 37 3
16 38 2
16 39 1
16 40 4
16 41 5
16 42 3
16 43 5
16 44 4
16 45 4
16 46 3
16 47 3
16 48 1
16 49 3
16 50 2
16 51 1
16 52 1
16 53 3
16 54 1
16 55 3
16 56 4
16 57 4
16 58 3
16 59 5
16 60 5
16 61 2
16 62 2
16 63 5
16 64 1
16 65 4
16 66 3
16 67 2
16 68 2
16 69 1
16 70 4
16 71 3
16 72 5
16 73 1
16 74 2
16 75 1
16 76 4
16 77 2
16 78 5
16 79 5
16 80 4
16 81 3
16 82 2
16 83 5
16 84 5
16 85 3
16 86 2
16 87 4
16 88 2
16 89 4
16 90 3
16 91 4
16 92 5
16 93 5
16 94 5
16 95 5
16 96 2
16 97 4
16 98 1
16 99 3
16 100 4
17 18 2
17 19 4
17 20 2
17 21 2
17 22 4
17 23 5
17 24 3
17 25 3
17 26 5
17 27 5
17 28 2
17 29 3
17 30 4
17 31 1
17 32 3
17 33 2
17 34 3
17 35 5
17 36 4
17 37 5
17 38 4
17 39 5
17 40 1
17 41 4
17 42 5
17 43 5
17 44 5
17 45 2
17 46 3
17 47 3
17 48 4
17 49 4
17 50 2
17 51 4
17 52 3
17 53 3
17 54 4
17 55 5
17 56 2
17 57 2
17 58 1
17 59 3
17 60 5
17 61 3
17 62 2
17 63 4
17 64 5
17 65 4
17 66 1
17 67 2
17 68 4
17 69 1
17 70 3
17 71 5
17 72 4
17 73 1
17 74 4
17 75 3
17 76 1
17 77 4
17 78 4
17 79 4
17 80 2
17 81 5
17 82 2
17 83 5
17 84 1
17 85 4
17 86 3
17 87 5
17 88 5
17 89 1
17 90 5
17 91 5
17 92 1
17 93 4
17 94 3
17 95 1
17 96 4
17 97 2
17 98 1
17 99 2
17 100 4
18 19 3
18 20 2
18 21 3
18 22 3
18 23 1
18 24 5
18 25 3
18 26 2
18 27 1
18 28 4
18 29 4
18 30 5
18 31 3
18 32 5
18 33 5
18 34 4
18 35 5
18 36 5
18 37 4
18 38 3
18 39 5
18 40 1
18 41 2
18 42 5
18 43 3
18 44 1
18 45 5
18 46 2
18 47 2
18 48 1
18 49 5
18 50 1
18 51 5
18 52 5
18 53 4
18 54 3
18 55 1
18 56 4
18 57 2
18 58 2
18 59 5
18 60 1
18 61 4
18 62 5
18 63 2
18 64 3
18 65 1
18 66 1
18 67 2
18 68 2
18 69 3
18 70 2
18 71 1
18 72 4
18 73 2
18 74 5
18 75 1
18 76 1
18 77 3
18 78 1
18 79 3
18 80 1
18 81 5
18 82 3
18 83 3
18 84 3
18 85 5
18 86 2
18 87 1
18 88 3
18 89 1
18 90 2
18 91 3
18 92 3
18 93 1
18 94 2
18 95 3
18 96 2
18 97 2
18 98 5
18 99 4
18 100 5
19 20 1
19 21 1
19 22 5
19 23 1
19 24 2
19 25 1
19 26 3
19 27 3
19 28 1
19 29 2
19 30 5
19 31 5
19 32 1
19 33 5
19 34 3
19 35 2
19 36 5
19 37 1
19 38 3
19 39 3
19 40 2
19 41 1
19 42 4
19 43 2
19 44 3
19 45 1
19 46 1
19 47 5
19 48 2
19 49 4
19 50 3
19 51 1
19 52 4
19 53 1
19 54 2
19 55 1
19 56 5
19 57 3
19 58 2
19 59 4
19 60 4
19 61 1
19 62 3
19 63 5
19 64 5
19 65 5
19 66 4
19 67 2
19 68 4
19 69 4
19 70 1
19 71 5
19 72 2
19 73 3
19 74 5
19 75 5
19 76 4
19 77 2
19 78 4
19 79 4
19 80 3
19 81 2
19 82 2
19 83 3
19 84 3
19 85 4
19 86 5
19 87 1
19 88 3
19 89 5
19 90 2
19 91 3
19 92 4
19 93 3
19 94 1
19 95 4
19 96 4
19 97 4
19 98 3
19 99 3
19 100 4
20 21 3
20 22 4
20 23 3
20 24 1
20 25 4
20 26 4
20 27 2
20 28 1
20 29 5
20 30 5
20 31 1
20 32 5
20 33 1
20 34 4
20 35 3
20 36 1
20 37 3
20 38 4
20 39 5
20 40 2
20 41 4
20 42 4
20 43 5
20 44 2
20 45 4
20 46 1
20 47 1
20 48 5
20 49 4
20 50 1
20 51 3
20 52 3
20 53 2
20 54 2
20 55 1
20 56 1
20 57 1
20 58 5
20 59 3
20 60 5
20 61 4
20 62 1
20 63 2
20 64 1
20 65 1
20 66 1
20 67 1
20 68 2
20 69 1
20 70 5
20 71 4
20 72 2
20 73 2
20 74 1
20 75 1
20 76 2
20 77 5
20 78 5
20 79 4
20 80 5
20 81 5
20 82 1
20 83 1
20 84 2
20 85 3
20 86 3
20 87 4
20 88 1
20 89 2
20 90 1
20 91 1
20 92 4
20 93 3
20 94 2
20 95 1
20 96 4
20 97 3
20 98 4
20 99 2
20 100 2
21 22 4
21 23 1
21 24 3
21 25 2
21 26 4
21 27 5
21 28 5
21 29 2
21 30 2
21 31 1
21 32 3
21 33 2
21 34 2
21 35 5
21 36 3
21 37 1
21 38 3
21 39 1
21 40 1
21 41 3
21 42 4
21 43 4
21 44 5
21 45 5
21 46 5
21 47 5
21 48 1
21 49 1
21 50 4
21 51 5
21 52 4
21 53 4
21 54 3
21 55 1
21 56 4
21 57 4
21 58 3
21 59 5
21 60 3
21 61 1
21 62 1
21 63 4
21 64 5
21 65 3
21 66 1
21 67 3
21 68 5
21 69 5
21 70 5
21 71 2
21 72 2
21 73 3
21 74 5
21 75 3
21 76 2
21 77 4
21 78 3
21 79 3
21 80 5
21 81 2
21 82 4
21 83 4
21 84 5
21 85 2
21 86 5
21 87 5
21 88 2
21 89 4
21 90 5
21 91 4
21 92 3
21 93 3
21 94 5
21 95 2
21 96 2
21 97 4
21 98 1
21 99 2
21 100 4
22 23 2
22 24 4
22 25 5
22 26 5
22 27 3
22 28 2
22 29 2
22 30 2
22 31 3
22 32 4
22 33 2
22 34 4
22 35 1
22 36 5
22 37 1
22 38 3
22 39 5
22 40 3
22 41 4
22 42 1
22 43 2
22 44 4
22 45 3
22 46 4
22 47 1
22 48 4
22 49 5
22 50 3
22 51 3
22 52 3
22 53 5
22 54 4
22 55 2
22 56 3
22 57 1
22 58 4
22 59 5
22 60 5
22 61 5
22 62 2
22 63 1
22 64 3
22 65 4
22 66 1
22 67 4
22 68 1
22 69 1
22 70 2
22 71 2
22 72 4
22 73 2
22 74 4
22 75 5
22 76 4
22 77 5
22 78 1
22 79 1
22 80 2
22 81 4
22 82 5
22 83 2
22 84 2
22 85 5
22 86 3
22 87 3
22 88 4
22 89 1
22 90 2
22 91 1
22 92 2
22 93 2
22 94 2
22 95 4
22 96 2
22 97 1
22 98 1
22 99 5
22 100 2
23 24 1
23 25 2
23 26 1
23 27 2
23 28 4
23 29 4
23 30 5
23 31 4
23 32 2
23 33 1
23 34 4
23 35 3
23 36 2
23 37 2
23 38 5
23 39 2
23 40 1
23 41 5
23 42 2
23 43 3
23 44 4
23 45 1
23 46 1
23 47 2
23 48 4
23 49 4
23 50 3
23 51 3
23 52 4
23 53 5
23 54 2
23 55 3
23 56 3
23 57 2
23 58 5
23 59 1
23 60 3
23 61 3
23 62 1
23 63 1
23 64 2
23 65 2
23 66 2
23 67 1
23 68 5
23 69 2
23 70 4
23 71 5
23 72 3
23 73 5
23 74 1
23 75 2
23 76 2
23 77 3
23 78 5
23 79 5
23 80 1
23 81 5
23 82 5
23 83 4
23 84 5
23 85 1
23 86 5
23 87 2
23 88 2
23 89 3
23 90 2
23 91 3
23 92 1
23 93 1
23 94 2
23 95 2
23 96 5
23 97 4
23 98 2
23 99 3
23 100 4
24 25 5
24 26 5
24 27 4
24 28 2
24 29 2
24 30 2
24 31 3
24 32 4
24 33 1
24 34 4
24 35 5
24 36 3
24 37 1
24 38 5
24 39 4
24 40 4
24 41 2
24 42 5
24 43 1
24 44 3
24 45 5
24 46 2
24 47 2
24 48 1
24 49 4
24 50 3
24 51 3
24 52 2
24 53 4
24 54 1
24 55 1
24 56 1
24 57 2
24 58 4
24 59 2
24 60 1
24 61 4
24 62 5
24 63 2
24 64 5
24 65 1
24 66 2
24 67 5
24 68 1
24 69 2
24 70 4
24 71 2
24 72 5
24 73 5
24 74 2
24 75 3
24 76 5
24 77 1
24 78 4
24 79 2
24 80 4
24 81 4
24 82 3
24 83 1
24 84 4
24 85 2
24 86 4
24 87 4
24 88 3
24 89 1
24 90 5
24 91 3
24 92 3
24 93 2
24 94 3
24 95 1
24 96 3
24 97 2
24 98 1
24 99 4
24 100 2
25 26 1
25 27 5
25 28 5
25 29 2
25 30 5
25 31 2
25 32 3
25 33 4
25 34 2
25 35 4
25 36 5
25 37 1
25 38 2
25 39 2
25 40 3
25 41 3
25 42 1
25 43 1
25 44 4
25 45 2
25 46 5
25 47 2
25 48 1
25 49 5
25 50 2
25 51 4
25 52 3
25 53 3
25 54 5
25 55 1
25 56 5
25 57 5
25 58 5
25 59 2
25 60 1
25 61 4
25 62 5
25 63 1
25 64 4
25 65 3
25 66 3
25 67 3
25 68 4
25 69 4
25 70 2
25 71 2
25 72 1
25 73 5
25 74 1
25 75 4
25 76 1
25 77 4
25 78 3
25 79 5
25 80 4
25 81 4
25 82 1
25 83 1
25 84 1
25 85 4
25 86 3
25 87 5
25 88 3
25 89 2
25 90 1
25 91 2
25 92 3
25 93 3
25 94 3
25 95 4
25 96 2
25 97 5
25 98 4
25 99 3
25 100 4
26 27 4
26 28 3
26 29 3
26 30 5
26 31 3
26 32 3
26 33 2
26 34 4
26 35 3
26 36 3
26 37 2
26 38 3
26 39 1
26 40 2
26 41 1
26 42 2
26 43 2
26 44 1
26 45 4
26 46 5
26 47 3
26 48 5
26 49 3
26 50 3
26 51 4
26 52 3
26 53 4
26 54 1
26 55 3
26 56 1
26 57 2
26 58 1
26 59 1
26 60 3
26 61 3
26 62 4
26 63 5
26 64 3
26 65 1
26 66 3
26 67 2
26 68 1
26 69 5
26 70 2
26 71 3
26 72 1
26 73 1
26 74 4
26 75 4
26 76 4
26 77 5
26 78 3
26 79 3
26 80 5
26 81 3
26 82 1
26 83 1
26 84 5
26 85 5
26 86 2
26 87 4
26 88 3
26 89 2
26 90 1
26 91 2
26 92 5
26 93 5
26 94 1
26 95 5
26 96 2
26 97 3
26 98 1
26 99 4
26 100 3
27 28 2
27 29 3
27 30 5
27 31 5
27 32 5
27 33 5
27 34 4
27 35 2
27 36 2
27 37 5
27 38 5
27 39 4
27 40 4
27 41 2
27 42 4
27 43 4
27 44 1
27 45 2
27 46 5
27 47 3
27 48 1
27 49 1
27 50 3
27 51 3
27 52 4
27 53 1
27 54 5
27 55 2
27 56 2
27 57 1
27 58 4
27 59 1
27 60 5
27 61 5
27 62 1
27 63 5
27 64 2
27 65 4
27 66 1
27 67 5
27 68 3
27 69 5
27 70 1
27 71 1
27 72 5
27 73 1
27 74 4
27 75 1
27 76 2
27 77 5
27 78 4
27 79 3
27 80 4
27 81 3
27 82 5
27 83 5
27 84 5
27 85 4
27 86 2
27 87 4
27 88 3
27 89 5
27 90 4
27 91 5
27 92 2
27 93 5
27 94 2
27 95 5
27 96 3
27 97 1
27 98 1
27 99 5
27 100 1
28 29 3
28 30 2
28 31 3
28 32 4
28 33 2
28 34 3
28 35 3
28 36 2
28 37 3
28 38 1
28 39 4
28 40 5
28 41 5
28 42 5
28 43 3
28 44 4
28 45 4
28 46 1
28 47 3
28 48 1
28 49 2
28 50 5
28 51 2
28 52 1
28 53 4
28 54 3
28 55 2
28 56 4
28 57 5
28 58 1
28 59 4
28 60 2
28 61 3
28 62 3
28 63 2
28 64 1
28 65 1
28 66 5
28 67 3
28 68 4
28 69 3
28 70 5
28 71 5
28 72 4
28 73 2
28 74 2
28 75 3
28 76 1
28 77 3
28 78 1
28 79 5
28 80 2
28 81 4
28 82 4
28 83 1
28 84 5
28 85 4
28 86 3
28 87 1
28 88 3
28 89 4
28 90 5
28 91 3
28 92 2
28 93 5
28 94 2
28 95 3
28 96 3
28 97 2
28 98 5
28 99 2
28 100 5
29 30 1
29 31 2
29 32 3
29 33 3
29 34 2
29 35 5
29 36 1
29 37 4
29 38 2
29 39 2
29 40 5
29 41 3
29 42 5
29 43 1
29 44 5
29 45 5
29 46 2
29 47 1
29 48 1
29 49 3
29 50 2
29 51 4
29 52 4
29 53 5
29 54 4
29 55 1
29 56 3
29 57 2
29 58 3
29 59 4
29 60 3
29 61 4
29 62 1
29 63 4
29 64 1
29 65 5
29 66 4
29 67 3
29 68 3
29 69 2
29 70 3
29 71 5
29 72 3
29 73 1
29 74 1
29 75 2
29 76 2
29 77 1
29 78 3
29 79 4
29 80 2
29 81 3
29 82 3
29 83 1
29 84 5
29 85 5
29 86 5
29 87 1
29 88 2
29 89 5
29 90 3
29 91 5
29 92 5
29 93 3
29 94 4
29 95 2
29 96 2
29 97 2
29 98 5
29 99 2
29 100 5
30 31 5
30 32 1
30 33 3
30 34 1
30 35 5
30 36 5
30 37 4
30 38 1
30 39 2
30 40 1
30 41 3
30 42 2
30 43 2
30 44 4
30 45 1
30 46 3
30 47 3
30 48 4
30 49 2
30 50 5
30 51 2
30 52 2
30 53 5
30 54 1
30 55 3
30 56 3
30 57 2
30 58 3
30 59 5
30 60 4
30 61 5
30 62 5
30 63 4
30 64 4
30 65 5
30 66 2
30 67 3
30 68 5
30 69 3
30 70 4
30 71 1
30 72 1
30 73 4
30 74 3
30 75 5
30 76 2
30 77 3
30 78 4
30 79 4
30 80 2
30 81 2
30 82 2
30 83 2
30 84 2
30 85 5
30 86 1
30 87 2
30 88 3
30 89 5
30 90 4
30 91 4
30 92 1
30 93 3
30 94 3
30 95 3
30 96 1
30 97 1
30 98 3
30 99 4
30 100 2
31 32 5
31 33 3
31 34 5
31 35 5
31 36 5
31 37 4
31 38 1
31 39 1
31 40 4
31 41 1
31 42 1
31 43 4
31 44 2
31 45 1
31 46 1
31 47 3
31 48 5
31 49 5
31 50 4
31 51 4
31 52 5
31 53 4
31 54 4
31 55 2
31 56 1
31 57 1
31 58 4
31 59 2
31 60 4
31 61 1
31 62 3
31 63 5
31 64 4
31 65 2
31 66 1
31 67 4
31 68 4
31 69 3
31 70 2
31 71 4
31 72 2
31 73 1
31 74 4
31 75 3
31 76 4
31 77 2
31 78 1
31 79 3
31 80 1
31 81 3
31 82 2
31 83 2
31 84 4
31 85 5
31 86 5
31 87 3
31 88 5
31 89 3
31 90 3
31 91 1
31 92 3
31 93 1
31 94 5
31 95 5
31 96 1
31 97 4
31 98 2
31 99 4
31 100 4
32 33 5
32 34 5
32 35 2
32 36 5
32 37 1
32 38 2
32 39 1
32 40 2
32 41 4
32 42 1
32 43 2
32 44 5
32 45 3
32 46 2
32 47 4
32 48 5
32 49 3
32 50 2
32 51 3
32 52 4
32 53 1
32 54 3
32 55 1
32 56 1
32 57 1
32 58 1
32 59 1
32 60 3
32 61 5
32 62 3
32 63 1
32 64 1
32 65 1
32 66 4
32 67 4
32 68 5
32 69 1
32 70 2
32 71 5
32 72 2
32 73 2
32 74 3
32 75 1
32 76 2
32 77 5
32 78 1
32 79 1
32 80 5
32 81 5
32 82 4
32 83 3
32 84 4
32 85 1
32 86 3
32 87 4
32 88 1
32 89 3
32 90 2
32 91 5
32 92 3
32 93 5
32 94 3
32 95 5
32 96 5
32 97 1
32 98 2
32 99 4
32 100 1
33 34 1
33 35 3
33 36 5
33 37 5
33 38 5
33 39 2
33 40 5
33 41 1
33 42 5
33 43 5
33 44 3
33 45 4
33 46 3
33 47 5
33 48 1
33 49 4
33 50 1
33 51 1
33 52 3
33 53 3
33 54 3
33 55 1
33 56 5
33 57 1
33 58 3
33 59 3
33 60 1
33 61 5
33 62 4
33 63 2
33 64 5
33 65 4
33 66 4
33 67 1
33 68 2
33 69 2
33 70 4
33 71 4
33 72 4
33 73 1
33 74 5
33 75 2
33 76 2
33 77 5
33 78 1
33 79 3
33 80 1
33 81 3
33 82 1
33 83 1
33 84 5
33 85 5
33 86 3
33 87 2
33 88 5
33 89 3
33 90 3
33 91 2
33 92 1
33 93 4
33 94 5
33 95 3
33 96 1
33 97 5
33 98 1
33 99 2
33 100 4
34 35 2
34 36 1
34 37 4
34 38 4
34 39 5
34 40 2
34 41 4
34 42 1
34 43 5
34 44 1
34 45 4
34 46 1
34 47 3
34 48 5
34 49 4
34 50 1
34 51 1
34 52 3
34 53 1
34 54 1
34 55 5
34 56 4
34 57 3
34 58 3
34 59 1
34 60 1
34 61 5
34 62 1
34 63 5
34 64 4
34 65 2
34 66 5
34 67 3
34 68 5
34 69 1
34 70 2
34 71 5
34 72 5
34 73 4
34 74 2
34 75 5
34 76 2
34 77 3
34 78 4
34 79 1
34 80 4
34 81 2
34 82 1
34 83 4
34 84 1
34 85 2
34 86 4
34 87 2
34 88 3
34 89 3
34 90 3
34 91 3
34 92 1
34 93 4
34 94 1
34 95 3
34 96 1
34 97 4
34 98 5
34 99 5
34 100 3
35 36 1
35 37 4
35 38 1
35 39 4
35 40 4
35 41 4
35 42 2
35 43 4
35 44 4
35 45 4
35 46 4
35 47 2
35 48 4
35 49 5
35 50 4
35 51 2
35 52 5
35 53 1
35 54 4
35 55 3
35 56 2
35 57 5
35 58 4
35 59 1
35 60 2
35 61 1
35 62 2
35 63 4
35 64 4
35 65 2
35 66 5
35 67 3
35 68 1
35 69 3
35 70 3
35 71 1
35 72 3
35 73 4
35 74 4
35 75 1
35 76 2
35 77 3
35 78 2
35 79 1
35 80 5
35 81 4
35 82 1
35 83 1
35 84 3
35 85 5
35 86 4
35 87 1
35 88 4
35 89 1
35 90 3
35 91 4
35 92 1
35 93 2
35 94 4
35 95 1
35 96 5
35 97 2
35 98 3
35 99 5
35 100 5
36 37 1
36 38 5
36 39 1
36 40 1
36 41 3
36 42 4
36 43 1
36 44 3
36 45 5
36 46 2
36 47 3
36 48 5
36 49 1
36 50 5
36 51 4
36 52 4
36 53 5
36 54 1
36 55 4
36 56 3
36 57 2
36 58 1
36 59 3
36 60 1
36 61 5
36 62 3
36 63 2
36 64 4
36 65 1
36 66 5
36 67 1
36 68 2
36 69 5
36 70 3
36 71 5
36 72 3
36 73 5
36 74 2
36 75 3
36 76 1
36 77 4
36 78 3
36 79 3
36 80 3
36 81 1
36 82 4
36 83 5
36 84 5
36 85 1
36 86 4
36 87 5
36 88 3
36 89 3
36 90 1
36 91 1
36 92 5
36 93 2
36 94 4
36 95 3
36 96 5
36 97 4
36 98 1
36 99 2
36 100 3
37 38 5
37 39 1
37 40 5
37 41 4
37 42 2
37 43 4
37 44 4
37 45 1
37 46 2
37 47 2
37 48 1
37 49 3
37 50 1
37 51 1
37 52 2
37 53 4
37 54 1
37 55 1
37 56 1
37 57 4
37 58 5
37 59 5
37 60 5
37 61 5
37 62 4
37 63 2
37 64 5
37 65 5
37 66 4
37 67 5
37 68 5
37 69 3
37 70 3
37 71 3
37 72 3
37 73 1
37 74 1
37 75 2
37 76 2
37 77 4
37 78 4
37 79 1
37 80 4
37 81 4
37 82 5
37 83 4
37 84 1
37 85 5
37 86 4
37 87 2
37 88 3
37 89 4
37 90 4
37 91 5
37 92 1
37 93 3
37 94 2
37 95 1
37 96 4
37 97 2
37 98 4
37 99 4
37 100 1
38 39 4
38 40 1
38 41 4
38 42 5
38 43 5
38 44 3
38 45 1
38 46 4
38 47 2
38 48 2
38 49 4
38 50 2
38 51 2
38 52 2
38 53 3
38 54 1
38 55 3
38 56 4
38 57 4
38 58 1
38 59 3
38 60 4
38 61 4
38 62 2
38 63 5
38 64 5
38 65 3
38 66 4
38 67 2
38 68 4
38 69 4
38 70 4
38 71 4
38 72 4
38 73 1
38 74 1
38 75 4
38 76 3
38 77 5
38 78 1
38 79 5
38 80 5
38 81 1
38 82 5
38 83 1
38 84 5
38 85 2
38 86 4
38 87 2
38 88 1
38 89 5
38 90 1
38 91 4
38 92 5
38 93 5
38 94 2
38 95 1
38 96 1
38 97 5
38 98 1
38 99 3
38 100 5
39 40 5
39 41 5
39 42 5
39 43 4
39 44 5
39 45 1
39 46 2
39 47 5
39 48 5
39 49 4
39 50 1
39 51 2
39 52 4
39 53 2
39 54 5
39 55 5
39 56 5
39 57 4
39 58 2
39 59 4
39 60 2
39 61 4
39 62 5
39 63 1
39 64 3
39 65 4
39 66 1
39 67 5
39 68 5
39 69 1
39 70 5
39 71 1
39 72 1
39 73 2
39 74 4
39 75 2
39 76 4
39 77 3
39 78 1
39 79 1
39 80 2
39 81 3
39 82 4
39 83 5
39 84 3
39 85 1
39 86 3
39 87 5
39 88 4
39 89 3
39 90 2
39 91 3
39 92 4
39 93 2
39 94 3
39 95 4
39 96 3
39 97 2
39 98 1
39 99 3
39 100 1
40 41 5
40 42 1
40 43 3
40 44 1
40 45 5
40 46 2
40 47 1
40 48 1
40 49 4
40 50 4
40 51 3
40 52 1
40 53 1
40 54 5
40 55 3
40 56 2
40 57 5
40 58 3
40 59 1
40 60 5
40 61 5
40 62 5
40 63 5
40 64 5
40 65 3
40 66 5
40 67 2
40 68 4
40 69 4
40 70 3
40 71 3
40 72 4
40 73 5
40 74 2
40 75 5
40 76 4
40 77 5
40 78 5
40 79 3
40 80 3
40 81 1
40 82 1
40 83 3
40 84 2
40 85 1
40 86 4
40 87 1
40 88 4
40 89 2
40 90 2
40 91 3
40 92 5
40 93 2
40 94 1
40 95 2
40 96 5
40 97 2
40 98 4
40 99 3
40 100 5
41 42 2
41 43 1
41 44 5
41 45 3
41 46 4
41 47 4
41 48 3
41 49 4
41 50 2
41 51 3
41 52 1
41 53 1
41 54 1
41 55 4
41 56 3
41 57 4
41 58 1
41 59 5
41 60 3
41 61 2
41 62 5
41 63 4
41 64 5
41 65 5
41 66 1
41 67 2
41 68 4
41 69 3
41 70 1
41 71 1
41 72 3
41 73 1
41 74 4
41 75 1
41 76 2
41 77 5
41 78 2
41 79 1
41 80 3
41 81 4
41 82 4
41 83 4
41 84 1
41 85 2
41 86 1
41 87 1
41 88 4
41 89 2
41 90 5
41 91 2
41 92 5
41 93 1
41 94 1
41 95 1
41 96 1
41 97 2
41 98 2
41 99 1
41 100 3
42 43 5
42 44 4
42 45 4
42 46 1
42 47 2
42 48 2
42 49 4
42 50 5
42 51 3
42 52 1
42 53 5
42 54 1
42 55 1
42 56 1
42 57 2
42 58 5
42 59 1
42 60 1
42 61 3
42 62 2
42 63 5
42 64 1
42 65 4
42 66 1
42 67 4
42 68 3
42 69 3
42 70 5
42 71 4
42 72 3
42 73 1
42 74 2
42 75 1
42 76 5
42 77 3
42 78 5
42 79 3
42 80 2
42 81 3
42 82 2
42 83 5
42 84 5
42 85 2
42 86 1
42 87 1
42 88 5
42 89 4
42 90 5
42 91 1
42 92 5
42 93 3
42 94 3
42 95 4
42 96 4
42 97 3
42 98 2
42 99 4
42 100 2
43 44 4
43 45 5
43 46 1
43 47 1
43 48 4
43 49 2
43 50 1
43 51 1
43 52 1
43 53 1
43 54 2
43 55 3
43 56 5
43 57 4
43 58 1
43 59 3
43 60 5
43 61 3
43 62 4
43 63 2
43 64 4
43 65 3
43 66 1
43 67 1
43 68 3
43 69 2
43 70 3
43 71 2
43 72 2
43 73 5
43 74 5
43 75 4
43 76 5
43 77 4
43 78 5
43 79 2
43 80 1
43 81 3
43 82 3
43 83 3
43 84 1
43 85 2
43 86 2
43 87 4
43 88 1
43 89 5
43 90 4
43 91 5
43 92 3
43 93 3
43 94 1
43 95 5
43 96 3
43 97 3
43 98 3
43 99 1
43 100 2
44 45 4
44 46 4
44 47 5
44 48 2
44 49 3
44 50 5
44 51 2
44 52 4
44 53 1
44 54 2
44 55 3
44 56 2
44 57 4
44 58 3
44 59 4
44 60 4
44 61 4
44 62 3
44 63 5
44 64 5
44 65 3
44 66 2
44 67 4
44 68 3
44 69 3
44 70 2
44 71 2
44 72 3
44 73 2
44 74 5
44 75 3
44 76 3
44 77 4
44 78 2
44 79 1
44 80 1
44 81 2
44 82 2
44 83 1
44 84 3
44 85 1
44 86 4
44 87 2
44 88 1
44 89 1
44 90 3
44 91 3
44 92 1
44 93 3
44 94 4
44 95 3
44 96 4
44 97 1
44 98 4
44 99 3
44 100 2
45 46 1
45 47 5
45 48 4
45 49 2
45 50 5
45 51 4
45 52 1
45 53 1
45 54 2
45 55 1
45 56 1
45 57 2
45 58 2
45 59 2
45 60 2
45 61 3
45 62 5
45 63 1
45 64 3
45 65 1
45 66 5
45 67 1
45 68 2
45 69 4
45 70 1
45 71 5
45 72 1
45 73 1
45 74 5
45 75 5
45 76 4
45 77 5
45 78 1
45 79 4
45 80 1
45 81 1
45 82 5
45 83 5
45 84 5
45 85 1
45 86 1
45 87 1
45 88 2
45 89 2
45 90 2
45 91 5
45 92 2
45 93 3
45 94 1
45 95 4
45 96 3
45 97 1
45 98 3
45 99 4
45 100 3
46 47 1
46 48 1
46 49 5
46 50 5
46 51 2
46 52 3
46 53 2
46 54 5
46 55 5
46 56 4
46 57 2
46 58 3
46 59 3
46 60 1
46 61 1
46 62 4
46 63 3
46 64 2
46 65 3
46 66 3
46 67 4
46 68 1
46 69 5
46 70 5
46 71 1
46 72 4
46 73 1
46 74 4
46 75 1
46 76 3
46 77 5
46 78 5
46 79 1
46 80 3
46 81 4
46 82 5
46 83 2
46 84 4
46 85 3
46 86 2
46 87 4
46 88 3
46 89 3
46 90 5
46 91 5
46 92 5
46 93 3
46 94 5
46 95 1
46 96 4
46 97 1
46 98 1
46 99 3
46 100 4
47 48 4
47 49 1
47 50 3
47 51 1
47 52 3
47 53 2
47 54 2
47 55 5
47 56 4
47 57 1
47 58 1
47 59 2
47 60 3
47 61 2
47 62 1
47 63 2
47 64 1
47 65 4
47 66 1
47 67 2
47 68 3
47 69 4
47 70 4
47 71 3
47 72 5
47 73 5
47 74 1
47 75 1
47 76 5
47 77 5
47 78 2
47 79 2
47 80 3
47 81 5
47 82 2
47 83 2
47 84 3
47 85 4
47 86 1
47 87 2
47 88 1
47 89 1
47 90 3
47 91 5
47 92 1
47 93 5
47 94 4
47 95 5
47 96 5
47 97 2
47 98 2
47 99 2
47 100 3
48 49 5
48 50 1
48 51 3
48 52 3
48 53 5
48 54 4
48 55 2
48 56 3
48 57 5
48 58 3
48 59 5
48 60 3
48 61 5
48 62 1
48 63 3
48 64 4
48 65 1
48 66 4
48 67 5
48 68 3
48 69 2
48 70 2
48 71 4
48 72 2
48 73 1
48 74 4
48 75 4
48 76 3
48 77 5
48 78 2
48 79 1
48 80 1
48 81 4
48 82 4
48 83 2
48 84 2
48 85 2
48 86 2
48 87 4
48 88 5
48 89 4
48 90 2
48 91 3
48 92 2
48 93 1
48 94 5
48 95 4
48 96 1
48 97 3
48 98 1
48 99 5
48 100 3
49 50 3
49 51 5
49 52 1
49 53 2
49 54 1
49 55 5
49 56 4
49 57 2
49 58 2
49 59 4
49 60 5
49 61 3
49 62 3
49 63 3
49 64 5
49 65 5
49 66 4
49 67 1
49 68 4
49 69 2
49 70 4
49 71 1
49 72 2
49 73 4
49 74 4
49 75 5
49 76 4
49 77 2
49 78 4
49 79 5
49 80 5
49 81 3
49 82 2
49 83 3
49 84 5
49 85 1
49 86 5
49 87 3
49 88 2
49 89 3
49 90 4
49 91 5
49 92 4
49 93 5
49 94 1
49 95 3
49 96 4
49 97 4
49 98 1
49 99 5
49 100 2
50 51 3
50 52 5
50 53 3
50 54 1
50 55 2
50 56 2
50 57 3
50 58 3
50 59 3
50 60 2
50 61 1
50 62 5
50 63 3
50 64 2
50 65 4
50 66 1
50 67 4
50 68 4
50 69 2
50 70 3
50 71 5
50 72 1
50 73 2
50 74 5
50 75 3
50 76 2
50 77 1
50 78 4
50 79 3
50 80 5
50 81 2
50 82 2
50 83 4
50 84 2
50 85 2
50 86 3
50 87 5
50 88 3
50 89 4
50 90 2
50 91 2
50 92 4
50 93 5
50 94 4
50 95 5
50 96 3
50 97 2
50 98 1
50 99 3
50 100 3
51 52 1
51 53 3
51 54 5
51 55 4
51 56 2
51 57 4
51 58 2
51 59 2
51 60 1
51 61 2
51 62 4
51 63 3
51 64 3
51 65 1
51 66 5
51 67 3
51 68 4
51 69 2
51 70 1
51 71 1
51 72 1
51 73 1
51 74 4
51 75 2
51 76 2
51 77 2
51 78 1
51 79 1
51 80 5
51 81 5
51 82 3
51 83 5
51 84 5
51 85 1
51 86 4
51 87 4
51 88 5
51 89 1
51 90 5
51 91 3
51 92 2
51 93 3
51 94 4
51 95 5
51 96 5
51 97 5
51 98 3
51 99 2
51 100 3
52 53 1
52 54 1
52 55 1
52 56 1
52 57 3
52 58 4
52 59 2
52 60 1
52 61 1
52 62 3
52 63 4
52 64 4
52 65 4
52 66 2
52 67 1
52 68 1
52 69 4
52 70 3
52 71 4
52 72 1
52 73 4
52 74 1
52 75 2
52 76 5
52 77 2
52 78 1
52 79 4
52 80 2
52 81 3
52 82 1
52 83 4
52 84 1
52 85 5
52 86 4
52 87 4
52 88 3
52 89 4
52 90 1
52 91 4
52 92 3
52 93 5
52 94 2
52 95 5
52 96 5
52 97 5
52 98 5
52 99 3
52 100 4
53 54 3
53 55 5
53 56 2
53 57 4
53 58 1
53 59 4
53 60 2
53 61 1
53 62 3
53 63 5
53 64 3
53 65 4
53 66 1
53 67 5
53 68 5
53 69 4
53 70 4
53 71 5
53 72 1
53 73 4
53 74 5
53 75 4
53 76 4
53 77 4
53 78 1
53 79 3
53 80 2
53 81 4
53 82 5
53 83 3
53 84 2
53 85 2
53 86 2
53 87 2
53 88 2
53 89 4
53 90 2
53 91 2
53 92 4
53 93 4
53 94 1
53 95 1
53 96 1
53 97 5
53 98 5
53 99 5
53 100 3
54 55 4
54 56 5
54 57 1
54 58 4
54 59 4
54 60 3
54 61 3
54 62 1
54 63 4
54 64 2
54 65 2
54 66 5
54 67 4
54 68 1
54 69 1
54 70 4
54 71 5
54 72 2
54 73 1
54 74 1
54 75 4
54 76 4
54 77 1
54 78 3
54 79 5
54 80 1
54 81 1
54 82 4
54 83 4
54 84 4
54 85 2
54 86 5
54 87 2
54 88 2
54 89 5
54 90 5
54 91 1
54 92 3
54 93 1
54 94 5
54 95 4
54 96 1
54 97 1
54 98 2
54 99 1
54 100 2
55 56 5
55 57 3
55 58 2
55 59 5
55 60 2
55 61 1
55 62 2
55 63 1
55 64 4
55 65 3
55 66 3
55 67 4
55 68 4
55 69 2
55 70 4
55 71 2
55 72 2
55 73 1
55 74 1
55 75 5
55 76 2
55 77 4
55 78 3
55 79 1
55 80 1
55 81 4
55 82 3
55 83 2
55 84 5
55 85 2
55 86 2
55 87 4
55 88 4
55 89 3
55 90 3
55 91 5
55 92 2
55 93 5
55 94 2
55 95 4
55 96 5
55 97 4
55 98 5
55 99 1
55 100 3
56 57 4
56 58 4
56 59 3
56 60 4
56 61 2
56 62 4
56 63 5
56 64 5
56 65 3
56 66 1
56 67 5
56 68 5
56 69 4
56 70 4
56 71 5
56 72 4
56 73 4
56 74 3
56 75 3
56 76 3
56 77 1
56 78 3
56 79 4
56 80 1
56 81 3
56 82 2
56 83 4
56 84 5
56 85 3
56 86 3
56 87 4
56 88 5
56 89 2
56 90 3
56 91 2
56 92 2
56 93 3
56 94 4
56 95 4
56 96 1
56 97 2
56 98 5
56 99 3
56 100 1
57 58 2
57 59 4
57 60 3
57 61 5
57 62 2
57 63 1
57 64 3
57 65 2
57 66 3
57 67 5
57 68 1
57 69 3
57 70 2
57 71 4
57 72 3
57 73 4
57 74 3
57 75 1
57 76 4
57 77 4
57 78 2
57 79 3
57 80 3
57 81 5
57 82 2
57 83 5
57 84 1
57 85 2
57 86 5
57 87 4
57 88 4
57 89 3
57 90 1
57 91 4
57 92 2
57 93 1
57 94 4
57 95 2
57 96 1
57 97 3
57 98 4
57 99 4
57 100 5
58 59 1
58 60 2
58 61 2
58 62 3
58 63 3
58 64 1
58 65 3
58 66 2
58 67 1
58 68 3
58 69 4
58 70 3
58 71 2
58 72 2
58 73 2
58 74 1
58 75 1
58 76 3
58 77 4
58 78 3
58 79 3
58 80 1
58 81 3
58 82 2
58 83 2
58 84 5
58 85 2
58 86 1
58 87 3
58 88 3
58 89 2
58 90 5
58 91 2
58 92 2
58 93 3
58 94 1
58 95 5
58 96 2
58 97 5
58 98 1
58 99 2
58 100 3
59 60 4
59 61 1
59 62 3
59 63 3
59 64 3
59 65 1
59 66 5
59 67 3
59 68 1
59 69 3
59 70 3
59 71 3
59 72 5
59 73 3
59 74 2
59 75 3
59 76 4
59 77 4
59 78 3
59 79 5
59 80 5
59 81 3
59 82 2
59 83 1
59 84 4
59 85 2
59 86 1
59 87 3
59 88 4
59 89 3
59 90 5
59 91 1
59 92 5
59 93 5
59 94 2
59 95 4
59 96 3
59 97 3
59 98 1
59 99 5
59 100 3
60 61 1
60 62 4
60 63 2
60 64 5
60 65 1
60 66 5
60 67 4
60 68 5
60 69 4
60 70 3
60 71 3
60 72 5
60 73 1
60 74 5
60 75 1
60 76 2
60 77 2
60 78 1
60 79 5
60 80 5
60 81 3
60 82 5
60 83 4
60 84 2
60 85 4
60 86 1
60 87 5
60 88 5
60 89 5
60 90 2
60 91 5
60 92 4
60 93 5
60 94 2
60 95 1
60 96 4
60 97 3
60 98 3
60 99 2
60 100 2
61 62 1
61 63 5
61 64 2
61 65 4
61 66 3
61 67 2
61 68 3
61 69 3
61 70 3
61 71 5
61 72 5
61 73 2
61 74 5
61 75 5
61 76 3
61 77 2
61 78 5
61 79 4
61 80 4
61 81 1
61 82 5
61 83 4
61 84 3
61 85 3
61 86 5
61 87 5
61 88 4
61 89 2
61 90 1
61 91 1
61 92 1
61 93 2
61 94 4
61 95 4
61 96 3
61 97 5
61 98 5
61 99 1
61 100 4
62 63 4
62 64 1
62 65 1
62 66 1
62 67 4
62 68 5
62 69 3
62 70 3
62 71 2
62 72 3
62 73 3
62 74 1
62 75 5
62 76 1
62 77 4
62 78 1
62 79 2
62 80 1
62 81 2
62 82 1
62 83 3
62 84 2
62 85 4
62 86 3
62 87 2
62 88 5
62 89 5
62 90 4
62 91 3
62 92 5
62 93 3
62 94 5
62 95 5
62 96 1
62 97 4
62 98 1
62 99 1
62 100 3
63 64 5
63 65 3
63 66 2
63 67 4
63 68 1
63 69 5
63 70 2
63 71 4
63 72 4
63 73 5
63 74 4
63 75 5
63 76 5
63 77 4
63 78 1
63 79 3
63 80 3
63 81 2
63 82 3
63 83 2
63 84 2
63 85 5
63 86 1
63 87 3
63 88 2
63 89 5
63 90 5
63 91 2
63 92 1
63 93 3
63 94 3
63 95 1
63 96 5
63 97 5
63 98 3
63 99 2
63 100 3
64 65 5
64 66 3
64 67 1
64 68 5
64 69 2
64 70 1
64 71 2
64 72 4
64 73 1
64 74 2
64 75 4
64 76 4
64 77 5
64 78 1
64 79 2
64 80 4
64 81 2
64 82 2
64 83 1
64 84 3
64 85 5
64 86 5
64 87 2
64 88 5
64 89 4
64 90 1
64 91 1
64 92 5
64 93 1
64 94 1
64 95 3
64 96 1
64 97 3
64 98 2
64 99 3
64 100 1
65 66 1
65 67 3
65 68 5
65 69 5
65 70 3
65 71 5
65 72 1
65 73 3
65 74 3
65 75 3
65 76 4
65 77 4
65 78 2
65 79 4
65 80 1
65 81 1
65 82 1
65 83 2
65 84 3
65 85 1
65 86 3
65 87 4
65 88 3
65 89 3
65 90 2
65 91 2
65 92 2
65 93 4
65 94 3
65 95 1
65 96 5
65 97 4
65 98 3
65 99 5
65 100 5
66 67 3
66 68 3
66 69 2
66 70 3
66 71 1
66 72 1
66 73 2
66 74 3
66 75 5
66 76 5
66 77 5
66 78 2
66 79 2
66 80 4
66 81 3
66 82 4
66 83 1
66 84 4
66 85 1
66 86 3
66 87 4
66 88 3
66 89 1
66 90 1
66 91 1
66 92 2
66 93 5
66 94 1
66 95 1
66 96 3
66 97 4
66 98 1
66 99 5
66 100 3
67 68 3
67 69 3
67 70 2
67 71 3
67 72 1
67 73 1
67 74 1
67 75 3
67 76 4
67 77 1
67 78 1
67 79 5
67 80 3
67 81 3
67 82 2
67 83 1
67 84 3
67 85 1
67 86 5
67 87 5
67 88 4
67 89 3
67 90 4
67 91 3
67 92 5
67 93 3
67 94 5
67 95 2
67 96 2
67 97 2
67 98 5
67 99 4
67 100 3
68 69 3
68 70 1
68 71 2
68 72 4
68 73 1
68 74 5
68 75 2
68 76 2
68 77 1
68 78 3
68 79 4
68 80 3
68 81 1
68 82 2
68 83 1
68 84 5
68 85 3
68 86 5
68 87 2
68 88 1
68 89 4
68 90 4
68 91 3
68 92 3
68 93 2
68 94 4
68 95 3
68 96 2
68 97 2
68 98 2
68 99 2
68 100 3
69 70 5
69 71 4
69 72 5
69 73 4
69 74 2
69 75 1
69 76 5
69 77 1
69 78 4
69 79 3
69 80 1
69 81 4
69 82 3
69 83 1
69 84 5
69 85 3
69 86 2
69 87 4
69 88 2
69 89 4
69 90 3
69 91 1
69 92 3
69 93 2
69 94 4
69 95 5
69 96 4
69 97 2
69 98 2
69 99 1
69 100 4
70 71 1
70 72 1
70 73 1
70 74 1
70 75 5
70 76 4
70 77 1
70 78 3
70 79 4
70 80 4
70 81 1
70 82 1
70 83 4
70 84 5
70 85 4
70 86 2
70 87 5
70 88 1
70 89 2
70 90 3
70 91 1
70 92 2
70 93 1
70 94 2
70 95 4
70 96 4
70 97 2
70 98 5
70 99 2
70 100 5
71 72 4
71 73 2
71 74 2
71 75 2
71 76 3
71 77 1
71 78 2
71 79 2
71 80 4
71 81 4
71 82 3
71 83 2
71 84 5
71 85 1
71 86 5
71 87 3
71 88 4
71 89 2
71 90 3
71 91 3
71 92 3
71 93 1
71 94 3
71 95 1
71 96 2
71 97 5
71 98 3
71 99 3
71 100 4
72 73 2
72 74 4
72 75 5
72 76 5
72 77 5
72 78 3
72 79 1
72 80 4
72 81 2
72 82 4
72 83 5
72 84 3
72 85 4
72 86 2
72 87 1
72 88 2
72 89 3
72 90 1
72 91 4
72 92 5
72 93 3
72 94 3
72 95 4
72 96 5
72 97 3
72 98 2
72 99 4
72 100 1
73 74 4
73 75 3
73 76 4
73 77 1
73 78 5
73 79 4
73 80 1
73 81 2
73 82 4
73 83 2
73 84 3
73 85 4
73 86 4
73 87 5
73 88 5
73 89 5
73 90 5
73 91 4
73 92 1
73 93 5
73 94 2
73 95 2
73 96 1
73 97 2
73 98 4
73 99 2
73 100 4
74 75 4
74 76 2
74 77 1
74 78 1
74 79 2
74 80 1
74 81 3
74 82 2
74 83 5
74 84 1
74 85 1
74 86 3
74 87 3
74 88 3
74 89 2
74 90 2
74 91 5
74 92 4
74 93 2
74 94 3
74 95 3
74 96 1
74 97 5
74 98 3
74 99 4
74 100 2
75 76 3
75 77 4
75 78 1
75 79 1
75 80 2
75 81 4
75 82 4
75 83 4
75 84 5
75 85 4
75 86 1
75 87 5
75 88 1
75 89 4
75 90 1
75 91 5
75 92 1
75 93 3
75 94 5
75 95 3
75 96 2
75 97 2
75 98 1
75 99 4
75 100 5
76 77 1
76 78 1
76 79 5
76 80 1
76 81 4
76 82 2
76 83 2
76 84 3
76 85 3
76 86 5
76 87 2
76 88 2
76 89 5
76 90 3
76 91 1
76 92 4
76 93 3
76 94 4
76 95 2
76 96 4
76 97 5
76 98 4
76 99 4
76 100 2
77 78 2
77 79 1
77 80 4
77 81 5
77 82 2
77 83 4
77 84 1
77 85 4
77 86 5
77 87 1
77 88 2
77 89 1
77 90 4
77 91 2
77 92 4
77 93 1
77 94 5
77 95 5
77 96 3
77 97 4
77 98 5
77 99 3
77 100 2
78 79 4
78 80 2
78 81 4
78 82 1
78 83 1
78 84 4
78 85 5
78 86 2
78 87 3
78 88 3
78 89 1
78 90 3
78 91 3
78 92 1
78 93 5
78 94 2
78 95 3
78 96 3
78 97 4
78 98 2
78 99 4
78 100 5
79 80 5
79 81 3
79 82 4
79 83 2
79 84 2
79 85 4
79 86 1
79 87 4
79 88 2
79 89 2
79 90 5
79 91 1
79 92 1
79 93 2
79 94 4
79 95 3
79 96 3
79 97 1
79 98 5
79 99 5
79 100 1
80 81 2
80 82 3
80 83 2
80 84 3
80 85 4
80 86 3
80 87 4
80 88 1
80 89 3
80 90 1
80 91 5
80 92 5
80 93 4
80 94 3
80 95 3
80 96 1
80 97 5
80 98 5
80 99 3
80 100 2
81 82 3
81 83 2
81 84 4
81 85 5
81 86 1
81 87 2
81 88 3
81 89 2
81 90 4
81 91 5
81 92 5
81 93 4
81 94 2
81 95 2
81 96 3
81 97 4
81 98 5
81 99 2
81 100 5
82 83 4
82 84 4
82 85 5
82 86 2
82 87 1
82 88 5
82 89 1
82 90 2
82 91 3
82 92 4
82 93 2
82 94 1
82 95 3
82 96 1
82 97 5
82 98 3
82 99 1
82 100 4
83 84 3
83 85 4
83 86 2
83 87 5
83 88 3
83 89 5
83 90 2
83 91 2
83 92 4
83 93 3
83 94 4
83 95 4
83 96 1
83 97 1
83 98 3
83 99 5
83 100 3
84 85 4
84 86 4
84 87 2
84 88 3
84 89 2
84 90 2
84 91 5
84 92 4
84 93 2
84 94 3
84 95 4
84 96 1
84 97 4
84 98 1
84 99 2
84 100 2
85 86 3
85 87 3
85 88 5
85 89 4
85 90 5
85 91 5
85 92 5
85 93 3
85 94 5
85 95 5
85 96 1
85 97 1
85 98 1
85 99 4
85 100 3
86 87 2
86 88 3
86 89 5
86 90 5
86 91 5
86 92 5
86 93 1
86 94 3
86 95 2
86 96 3
86 97 4
86 98 4
86 99 4
86 100 2
87 88 5
87 89 4
87 90 1
87 91 1
87 92 5
87 93 2
87 94 5
87 95 4
87 96 5
87 97 2
87 98 5
87 99 4
87 100 2
88 89 4
88 90 5
88 91 1
88 92 3
88 93 2
88 94 1
88 95 4
88 96 2
88 97 3
88 98 2
88 99 2
88 100 3
89 90 2
89 91 5
89 92 3
89 93 5
89 94 3
89 95 5
89 96 1
89 97 1
89 98 4
89 99 4
89 100 5
90 91 5
90 92 3
90 93 2
90 94 1
90 95 5
90 96 3
90 97 1
90 98 5
90 99 2
90 100 4
91 92 4
91 93 2
91 94 1
91 95 3
91 96 4
91 97 2
91 98 5
91 99 1
91 100 5
92 93 1
92 94 5
92 95 3
92 96 2
92 97 4
92 98 2
92 99 4
92 100 3
93 94 3
93 95 2
93 96 3
93 97 4
93 98 3
93 99 2
93 100 3
94 95 1
94 96 1
94 97 5
94 98 1
94 99 2
94 100 2
95 96 1
95 97 2
95 98 3
95 99 2
95 100 3
96 97 5
96 98 4
96 99 1
96 100 3
97 98 3
97 99 2
97 100 4
98 99 2
98 100 1
99 100 4
